496 960
2 1 4
66 1 -4
222 1 -4
223 1 4
220 2 -4
237 2 -4
440 2 4
53 3 4
241 3 -4
344 3 4
376 3 -4
5 4 -4
292 4 4
347 4 4
413 4 -4
17 5 4
289 5 -4
346 5 4
171 6 -4
241 6 -4
381 6 4
489 6 4
70 7 -4
112 7 4
254 7 4
274 7 -4
9 8 4
93 8 4
101 8 -4
305 8 -4
72 9 4
174 9 -4
175 9 -4
42 10 -4
176 10 4
176 11 4
458 11 -4
13 12 4
111 12 4
232 12 -4
275 12 -4
69 13 -4
142 13 4
427 13 -4
15 14 4
88 14 4
280 14 -4
434 14 -4
173 15 -4
174 15 -4
364 15 4
17 16 4
171 16 -4
294 16 4
415 16 -4
452 17 -4
455 17 -4
30 18 -4
180 18 4
180 19 4
419 19 -4
250 20 4
273 20 4
356 20 -4
463 20 -4
22 21 4
106 21 4
255 21 -4
303 21 -4
61 22 -4
138 22 4
465 22 -4
24 23 4
25 23 -4
80 23 4
397 23 -4
172 24 -4
173 24 -4
396 24 4
92 25 4
181 25 -4
363 25 4
27 26 4
52 26 -4
311 26 4
399 26 -4
57 27 -4
80 27 -4
81 27 4
29 28 -4
378 28 4
492 28 4
493 28 -4
318 29 4
449 29 -4
487 29 4
31 30 4
190 30 4
230 30 -4
384 31 -4
33 32 -4
253 32 4
270 32 4
301 32 -4
123 33 4
124 33 4
201 33 -4
35 34 4
99 34 4
276 34 -4
331 34 -4
55 35 -4
113 35 -4
133 35 4
37 36 4
48 36 4
177 36 -4
234 36 -4
99 37 -4
153 37 4
232 37 -4
39 38 4
59 38 -4
337 38 4
366 38 -4
64 39 -4
182 39 -4
476 39 4
311 40 -4
313 40 4
337 40 4
339 40 -4
108 41 4
290 41 4
379 41 -4
488 41 -4
43 42 4
186 42 4
249 42 -4
353 43 -4
45 44 -4
252 44 4
298 44 4
328 44 -4
132 45 4
207 45 -4
385 45 4
125 46 4
252 46 4
274 46 -4
463 46 -4
112 47 -4
159 47 4
172 47 4
191 47 -4
172 48 -4
433 48 4
472 48 -4
50 49 4
236 49 -4
335 49 -4
369 49 4
64 50 4
179 50 -4
235 50 -4
52 51 -4
82 51 4
369 51 4
372 51 -4
120 52 4
283 52 4
116 53 4
287 53 -4
347 53 -4
218 54 -4
272 54 4
325 54 4
359 54 -4
253 55 -4
272 55 4
426 55 4
111 56 -4
165 56 4
173 56 4
187 56 -4
79 57 4
208 57 4
396 57 -4
59 58 -4
75 58 4
402 58 4
405 58 -4
127 59 4
260 59 4
231 60 -4
300 60 4
355 60 4
390 60 -4
273 61 -4
300 61 4
391 61 4
78 62 -4
106 62 -4
174 62 4
430 62 4
112 63 -4
139 63 4
174 63 -4
258 63 4
72 64 4
364 64 -4
236 65 -4
371 65 4
438 65 4
441 65 -4
90 66 4
341 66 -4
371 66 4
148 67 4
263 67 -4
408 67 -4
489 67 4
251 68 -4
327 68 4
387 68 4
424 68 -4
301 69 -4
327 69 4
360 69 4
71 70 4
177 70 -4
429 70 4
164 71 4
360 71 -4
394 71 -4
150 72 -4
333 72 -4
221 73 -4
404 73 4
477 73 4
480 73 -4
75 74 -4
83 74 4
238 74 -4
404 74 4
260 75 -4
442 75 4
144 76 4
240 76 -4
375 76 -4
450 76 4
254 77 -4
328 77 -4
330 77 4
358 77 4
332 78 4
393 78 -4
467 78 4
305 79 4
306 79 -4
308 79 -4
100 80 4
335 80 -4
151 81 -4
220 81 4
436 81 -4
155 82 4
183 82 -4
283 82 -4
183 83 -4
203 83 4
211 83 -4
141 84 4
225 84 -4
343 84 -4
410 84 4
201 85 4
207 85 -4
422 85 4
461 85 -4
98 86 4
275 86 -4
359 86 -4
389 86 4
98 87 -4
158 87 4
187 87 4
303 87 -4
309 88 -4
399 88 -4
432 88 4
154 89 -4
399 89 4
400 89 -4
477 89 4
185 90 -4
198 90 4
224 90 -4
136 91 4
212 91 -4
316 91 -4
378 91 4
467 92 4
468 92 -4
470 92 -4
282 93 -4
366 93 -4
471 93 4
161 94 -4
366 94 4
367 94 -4
438 94 4
188 95 4
223 95 -4
283 95 4
439 95 -4
103 96 -4
286 96 -4
346 96 4
451 96 4
109 97 4
189 97 -4
244 97 4
265 97 -4
329 98 -4
392 98 4
392 99 4
429 99 -4
234 100 -4
398 100 4
470 100 -4
114 101 4
335 101 -4
474 101 4
192 102 4
210 102 -4
312 102 4
403 102 -4
104 103 4
193 103 -4
487 103 4
225 104 -4
261 104 4
314 104 -4
164 105 -4
330 105 4
462 105 4
463 105 -4
277 106 -4
427 106 4
197 107 4
202 107 -4
338 107 4
370 107 -4
212 108 4
240 108 -4
241 108 -4
199 109 -4
168 110 -4
360 110 4
423 110 4
424 110 -4
256 111 -4
465 111 4
113 112 4
276 113 -4
391 113 4
306 114 4
362 114 -4
397 114 -4
116 115 -4
117 115 4
204 115 -4
242 115 4
148 116 4
319 116 -4
213 117 -4
215 117 4
228 117 -4
250 118 4
251 118 -4
253 118 -4
358 118 4
125 119 -4
232 119 4
255 119 -4
426 119 4
237 120 -4
310 120 4
436 120 -4
141 121 4
213 121 4
264 121 -4
490 121 -4
137 122 4
352 122 -4
352 123 4
353 123 -4
356 123 -4
231 124 -4
252 124 -4
327 124 4
126 125 4
466 125 -4
327 126 4
328 126 -4
331 126 -4
221 127 -4
336 127 4
400 127 -4
406 128 4
479 128 4
480 128 -4
483 128 -4
136 129 4
226 129 4
243 129 -4
451 129 -4
131 130 4
268 130 -4
385 130 4
386 130 -4
457 131 -4
218 132 -4
272 132 -4
300 132 4
300 133 4
301 133 -4
303 133 -4
236 134 4
237 134 -4
371 134 -4
440 134 4
440 135 4
441 135 -4
443 135 4
444 135 -4
409 136 -4
411 136 -4
296 137 -4
420 137 4
421 137 -4
272 138 4
273 138 -4
275 138 -4
465 139 4
466 139 -4
468 139 -4
404 140 4
405 140 -4
407 140 -4
482 140 4
377 141 -4
380 141 -4
252 142 4
253 142 -4
254 142 -4
160 143 -4
233 143 4
427 143 4
428 143 -4
242 144 4
345 144 -4
348 144 -4
166 145 -4
257 145 4
392 145 4
393 145 -4
150 146 4
365 146 -4
437 146 -4
475 146 4
260 147 4
475 147 4
476 147 -4
478 147 -4
317 148 -4
318 148 -4
271 149 4
459 149 4
460 149 -4
461 149 -4
334 150 4
336 150 -4
283 151 4
437 151 4
439 151 -4
299 152 4
420 152 4
421 152 -4
422 152 -4
306 153 -4
333 153 -4
468 153 4
312 154 4
401 154 4
403 154 -4
156 155 4
313 155 -4
407 155 -4
315 156 4
374 156 -4
481 156 -4
326 157 4
385 157 4
386 157 -4
388 157 -4
160 158 4
332 158 -4
468 158 -4
160 159 4
333 159 -4
362 159 -4
469 160 -4
338 161 4
368 161 4
370 161 -4
163 162 4
350 162 -4
170 163 -4
494 163 4
495 163 -4
464 164 4
466 164 -4
166 165 4
362 165 -4
395 165 -4
394 166 4
430 166 -4
382 167 -4
496 167 4
393 168 4
425 168 4
428 168 -4
409 169 4
484 169 4
485 169 -4
488 169 -4
496 170 4
379 171 4
413 171 -4
277 172 -4
256 173 -4
233 175 -4
305 175 -4
429 175 4
201 176 4
207 176 -4
181 177 -4
187 177 -4
257 178 -4
280 178 -4
305 178 -4
467 178 4
334 179 4
399 179 -4
433 179 -4
196 180 4
217 180 -4
278 181 -4
280 181 -4
363 182 4
366 182 -4
472 182 -4
261 183 -4
440 183 4
194 184 -4
416 184 -4
284 185 -4
313 185 -4
479 185 4
298 186 -4
325 186 4
458 186 4
428 187 -4
238 188 -4
314 188 -4
339 188 -4
205 189 -4
270 190 -4
355 190 4
419 190 4
361 191 4
466 191 -4
467 191 -4
261 192 -4
340 192 -4
372 192 -4
238 193 4
240 193 -4
340 193 -4
195 194 -4
227 194 4
293 194 -4
215 195 -4
250 196 -4
384 196 4
387 196 4
284 197 -4
373 197 -4
405 197 -4
212 198 -4
263 198 -4
373 198 -4
200 199 -4
214 199 4
320 199 -4
228 200 -4
353 201 4
314 202 -4
406 202 -4
441 202 -4
225 203 -4
286 203 -4
406 203 -4
205 204 4
226 204 -4
245 204 -4
206 205 -4
494 205 -4
245 206 -4
324 207 4
209 208 -4
219 208 -4
308 208 -4
220 209 -4
236 209 -4
367 209 4
340 210 -4
443 210 -4
480 210 -4
240 211 -4
316 211 -4
443 211 -4
445 212 -4
214 213 -4
290 213 -4
243 214 -4
266 214 -4
216 215 -4
454 215 -4
266 216 -4
218 217 -4
297 217 4
387 217 -4
420 218 4
221 219 -4
309 219 -4
402 219 4
222 220 -4
222 221 -4
404 222 -4
373 223 -4
482 223 -4
263 224 -4
343 224 -4
482 224 -4
287 225 -4
227 226 -4
318 226 -4
264 227 -4
294 227 -4
229 228 -4
414 228 -4
294 229 -4
231 230 -4
269 230 4
355 230 -4
459 231 4
233 232 -4
258 233 -4
258 234 -4
307 234 -4
237 235 -4
282 235 -4
438 235 4
239 238 -4
286 239 -4
375 239 -4
483 239 4
242 241 4
291 242 -4
244 243 -4
348 243 -4
291 244 -4
321 244 -4
246 245 -4
455 245 -4
321 246 -4
248 247 -4
352 247 -4
249 248 4
351 248 -4
354 248 -4
251 249 -4
325 249 -4
386 250 4
354 251 -4
392 254 -4
257 255 -4
277 255 -4
276 256 -4
279 256 4
279 257 -4
259 258 -4
279 259 -4
363 259 -4
432 259 4
479 260 4
262 261 -4
316 262 -4
408 262 -4
444 262 4
487 263 -4
265 264 -4
380 264 -4
319 265 -4
350 265 -4
267 266 -4
495 266 -4
350 267 -4
269 268 -4
383 269 -4
459 269 -4
271 270 4
421 270 4
273 271 -4
389 271 4
302 274 -4
361 274 4
361 275 -4
278 276 -4
304 277 4
304 278 -4
394 278 4
281 279 -4
334 280 4
304 281 -4
334 281 -4
471 281 4
397 282 -4
437 282 4
285 284 -4
445 284 -4
343 285 -4
407 285 4
447 285 -4
288 286 -4
289 287 -4
448 287 -4
289 288 -4
447 288 -4
489 288 -4
290 289 -4
349 290 -4
293 291 -4
411 291 -4
321 292 4
382 292 -4
493 292 4
349 293 -4
382 293 -4
295 294 -4
382 295 -4
297 296 -4
418 297 -4
420 297 -4
299 298 4
460 298 4
301 299 -4
423 299 4
303 302 -4
390 302 -4
423 302 4
306 304 -4
308 307 -4
333 307 4
434 307 -4
310 308 -4
401 309 4
434 309 -4
398 310 -4
401 310 -4
312 311 4
475 311 4
313 312 -4
315 314 -4
375 315 -4
486 315 -4
317 316 -4
450 317 -4
486 317 -4
381 318 -4
320 319 -4
452 319 -4
381 320 -4
415 320 -4
322 321 -4
415 322 -4
324 323 -4
457 323 -4
385 324 -4
456 324 -4
326 325 4
328 326 -4
462 326 4
331 329 -4
424 329 -4
462 329 4
332 330 -4
427 330 4
332 331 -4
368 335 4
368 336 -4
435 336 -4
338 337 4
437 337 4
339 338 -4
442 339 -4
342 340 -4
342 341 -4
442 341 -4
445 341 -4
344 342 -4
408 342 -4
345 343 -4
345 344 -4
446 344 -4
410 345 -4
348 346 4
409 346 -4
412 347 4
450 347 4
412 348 -4
491 349 -4
494 349 -4
413 350 4
353 351 -4
354 352 -4
356 354 -4
357 355 4
357 356 -4
359 357 -4
462 357 -4
461 358 -4
464 358 4
464 359 -4
465 360 4
394 361 4
364 362 -4
365 363 4
365 364 -4
367 365 -4
473 367 -4
402 368 4
370 369 4
401 369 4
372 370 -4
481 371 4
481 372 -4
374 373 -4
376 374 -4
447 374 -4
377 375 -4
377 376 -4
485 376 -4
378 377 -4
380 378 4
410 379 4
453 379 4
453 380 -4
454 381 -4
384 383 -4
386 384 -4
388 387 4
390 388 -4
423 388 -4
422 389 -4
425 389 4
425 390 -4
393 391 -4
425 391 4
396 395 -4
430 395 -4
471 395 -4
398 396 -4
400 397 4
400 398 -4
403 402 4
405 403 -4
484 406 -4
484 407 -4
409 408 -4
411 410 4
492 411 -4
414 412 -4
494 412 -4
416 413 -4
416 414 -4
492 414 -4
417 415 -4
417 416 -4
419 418 -4
421 419 -4
424 422 -4
428 426 -4
464 426 4
469 429 4
431 430 -4
432 431 -4
433 431 -4
469 431 -4
435 432 4
435 433 -4
436 434 4
436 435 -4
439 438 4
441 439 -4
444 442 -4
446 443 -4
446 444 -4
448 445 -4
448 446 -4
449 447 -4
449 448 -4
451 449 -4
452 450 4
452 451 -4
454 453 -4
455 453 -4
496 454 4
496 455 -4
458 456 -4
459 457 4
460 457 -4
460 458 -4
463 461 -4
470 469 -4
472 470 -4
473 471 4
473 472 -4
474 473 -4
475 474 -4
476 474 -4
477 476 -4
478 477 4
479 478 -4
480 478 -4
483 481 -4
485 482 -4
485 483 -4
486 484 -4
488 486 -4
490 487 4
490 488 -4
491 489 4
491 490 -4
493 491 -4
495 492 -4
495 493 -4
326
171 2
172 2
173 2
174 2
175 2
176 -2
177 4
178 2
179 2
180 -2
181 4
182 2
183 2
184 2
185 2
186 -2
187 2
188 2
189 2
190 -2
191 2
192 2
193 2
194 2
195 2
196 -2
197 2
198 2
199 2
200 2
201 -2
202 4
203 2
204 2
205 2
206 2
207 2
208 2
209 2
210 4
211 4
212 2
213 2
214 2
215 2
216 2
217 2
218 2
219 2
220 2
221 4
222 4
223 2
224 4
225 4
226 2
227 2
228 4
229 2
230 2
231 2
232 2
233 2
234 4
235 2
236 2
237 4
238 2
239 2
240 4
241 2
242 -2
243 4
244 2
245 4
246 2
247 2
248 2
249 2
250 -2
251 4
252 -2
253 2
254 2
255 4
256 2
257 2
258 2
259 2
260 -2
261 2
262 2
263 4
264 4
265 4
266 4
267 2
268 2
269 2
270 -2
271 -2
272 -2
273 2
274 2
275 4
276 4
277 2
278 2
279 2
280 2
281 2
282 2
283 -2
284 4
285 2
286 4
287 4
288 4
289 4
290 2
291 4
292 -2
293 4
294 2
295 2
296 2
297 2
298 -2
299 -2
300 -4
301 4
302 2
303 4
304 2
305 2
306 2
307 2
308 4
309 2
310 2
311 -2
312 -2
313 2
314 4
315 2
316 4
317 4
318 2
319 4
320 4
321 2
322 2
323 2
324 2
325 -2
326 -2
327 -4
328 4
329 2
330 -2
331 4
332 2
333 2
334 -2
335 2
336 2
337 -4
338 -2
339 4
340 4
341 4
342 4
343 4
344 2
345 4
346 -2
347 -2
348 2
349 4
350 2
351 2
352 2
353 2
354 4
355 -2
356 4
357 2
358 -2
359 4
360 -2
361 -2
362 4
363 -2
364 2
365 2
366 2
367 2
368 -2
369 -4
370 2
371 -2
372 4
373 4
374 4
375 4
376 4
377 4
378 -2
379 -2
380 2
381 2
382 4
383 2
384 2
385 -2
386 2
387 -2
388 2
389 -2
390 4
391 -2
392 -2
393 2
394 -2
395 4
396 2
397 2
398 2
399 2
400 2
401 -2
402 -4
403 2
404 -2
405 4
406 2
407 2
408 4
409 2
410 -2
411 2
412 2
413 2
414 4
415 4
416 4
417 2
418 2
419 2
420 -2
421 2
422 2
423 -2
424 4
425 -2
426 -2
427 -2
428 4
429 -2
430 2
431 4
432 -2
433 2
434 2
435 2
436 2
437 -2
438 -4
439 2
440 -4
441 4
442 2
443 2
444 2
445 4
446 4
447 4
448 4
449 4
450 -2
451 2
452 2
453 2
454 2
455 4
456 2
457 2
458 2
459 -2
460 2
461 4
462 -2
463 4
464 -2
465 -2
466 4
467 -2
468 2
469 2
470 4
471 -2
472 4
473 2
474 2
475 -2
476 2
477 -2
478 2
479 -2
480 4
481 2
482 2
483 2
484 2
485 4
486 4
487 -2
488 4
489 -2
490 2
491 2
492 2
493 2
494 2
495 4
496 -2
